This is Ipopt version 3.10.0, running with linear solver ma27.

Number of nonzeros in equality constraint Jacobian...:        0
Number of nonzeros in inequality constraint Jacobian.:       48
Number of nonzeros in Lagrangian Hessian.............:        0

Total number of variables............................:        6
                     variables with only lower bounds:        0
                variables with lower and upper bounds:        6
                     variables with only upper bounds:        0
Total number of equality constraints.................:        0
Total number of inequality constraints...............:        8
        inequality constraints with only lower bounds:        0
   inequality constraints with lower and upper bounds:        0
        inequality constraints with only upper bounds:        8

iter    objective    inf_pr   inf_du lg(mu)  ||d||  lg(rg) alpha_du alpha_pr  ls
   0  7.6646327e+00 2.35e+00 1.19e+00   0.0 0.00e+00    -  0.00e+00 0.00e+00   0
   1  9.2724961e+00 1.54e+00 1.04e+01  -0.5 1.51e+00    -  5.30e-01 4.79e-01f  1
   2  9.6689893e+00 7.34e-01 5.71e+00  -0.4 9.58e-01    -  9.58e-01 5.47e-01h  1
   3  1.1853879e+01 5.09e-01 1.66e+01  -0.4 1.03e+00    -  8.47e-01 5.13e-01h  1
   4  1.3892263e+01 1.68e-01 9.45e+00  -0.7 1.37e+00    -  6.78e-01 1.00e+00h  1
   5  1.4653473e+01 7.64e-02 3.37e+00  -1.2 6.75e-01    -  1.00e+00 6.80e-01h  1
   6  1.5101732e+01 4.35e-02 8.28e+00  -1.2 5.56e-01    -  8.92e-01 3.38e-01h  1
   7  1.5918831e+01 5.11e-03 2.42e+00  -2.3 1.72e-01    -  1.00e+00 9.16e-01h  1
   8  1.6034510e+01 0.00e+00 3.84e-01  -2.9 4.58e-02    -  1.00e+00 1.00e+00h  1
   9  1.5999880e+01 2.94e-04 7.64e-01  -3.9 6.23e-02    -  1.00e+00 1.00e+00h  1
iter    objective    inf_pr   inf_du lg(mu)  ||d||  lg(rg) alpha_du alpha_pr  ls
  10  1.5973376e+01 5.93e-04 1.44e-01  -5.5 2.70e-02    -  1.00e+00 1.00e+00h  1
  11  1.5963979e+01 0.00e+00 7.52e-02  -6.8 4.18e-03    -  1.00e+00 1.00e+00h  1
  12  1.5963027e+01 1.26e-04 1.00e-01  -8.5 2.02e-03    -  1.00e+00 1.00e+00h  1
  13  1.5964996e+01 1.04e-05 3.36e-03  -9.9 1.39e-03    -  1.00e+00 1.00e+00h  1
  14  1.5963966e+01 7.42e-05 2.48e-02 -11.0 3.02e-04    -  1.00e+00 1.00e+00h  1
  15  1.5963193e+01 7.86e-05 1.18e-02 -11.0 2.52e-04    -  1.00e+00 1.00e+00H  1

Number of Iterations....: 15

                                   (scaled)                 (unscaled)
Objective...............:   1.5963193428652524e+01    1.5963193428652524e+01
Dual infeasibility......:   1.1765362800147020e-02    1.1765362800147020e-02
Constraint violation....:   7.8581170605837873e-05    7.8581170605837873e-05
Complementarity.........:   1.0000366196113268e-11    1.0000366196113268e-11
Overall NLP error.......:   1.1765362800147020e-02    1.1765362800147020e-02


Number of objective function evaluations             = 17
Number of objective gradient evaluations             = 16
Number of equality constraint evaluations            = 0
Number of inequality constraint evaluations          = 17
Number of equality constraint Jacobian evaluations   = 0
Number of inequality constraint Jacobian evaluations = 16
Number of Lagrangian Hessian evaluations             = 0
Total CPU secs in IPOPT (w/o function evaluations)   =      0.018
Total CPU secs in NLP function evaluations           =    471.527

EXIT: Stopping optimization at current point as requested by user.
